
--- Job bchfcnet.gms Start 02/08/22 11:51:45 34.3.0 rac355f3 WEX-WEI x86 64bit/MS Windows
--- Applying:
    C:\GAMS\34\gmsprmNT.txt
--- GAMS Parameters defined
    Input C:\Users\dekhi\Desktop\gamsworld\FCNetLib\test\bchfcnet.gms
    PageSize 0
    ScrDir C:\Users\dekhi\Desktop\gamsworld\FCNetLib\test\225a\
    SysDir C:\GAMS\34\
    LogOption 3
    ErrMsg 1
    ErrorLog 99
    IDE 1
    ResLim 3600
    LstTitleLeftAligned 1
Licensee: Eval License                                   S211214|0002AW-GEN
          Ostfalia Hochschule fuer angewandte Wissenschaften        DCE1645
          C:\Users\dekhi\Documents\GAMS\gamslice.txt
          License Admin: Mohamed Ali Dekhil, dekhil.medali@gmail.com       
          Evaluation license: Not for commercial or production use
GAMS 34.3.0   Copyright (C) 1987-2021 GAMS Development. All rights reserved
--- Starting compilation
--- bchfcnet.gms(34) 2 Mb
--- . decl.gms(15) 2 Mb
--- bchfcnet.gms(38) 2 Mb
--- . beasleyC1.inc(1272) 3 Mb
--- bchfcnet.gms(67) 3 Mb
--- . equs.gms(20) 3 Mb
--- bchfcnet.gms(97) 3 Mb
--- call rm -f bchout_i.gdx startcut.txt startheur.txt cuthist.gdx agap.txt rgap.txt cntfail.txt
--- bchfcnet.gms(118) 3 Mb
--- Starting execution: elapsed 0:00:00.078
--- bchfcnet.gms(1330) 4 Mb
--- GDX File (execute_unload) C:\Users\dekhi\Desktop\gamsworld\FCNetLib\test\net.gdx
--- bchfcnet.gms(1421) 4 Mb
--- GDXin=C:\Users\dekhi\Desktop\gamsworld\FCNetLib\test\points\beasleyC1.gdx
--- bchfcnet.gms(1421) 5 Mb
--- GDX File (execute_load) C:\Users\dekhi\Desktop\gamsworld\FCNetLib\test\points\beasleyC1.gdx
--- Generating MIP model master
--- bchfcnet.gms(1425) 5 Mb
---   1,751 rows  2,501 columns  6,251 non-zeroes
---   1,250 discrete-columns
--- Executing CPLEX (Solvelink=2): elapsed 0:00:00.109

IBM ILOG CPLEX   34.3.0 rac355f3 Released Feb 25, 2021 WEI x86 64bit/MS Window

--- GAMS/Cplex Link licensed for continuous and discrete problems.

Reading parameter(s) from "C:\Users\dekhi\Desktop\gamsworld\FCNetLib\test\cplex.op2"
>>  mipstart 1
Finished reading from "C:\Users\dekhi\Desktop\gamsworld\FCNetLib\test\cplex.op2"

--- Space for names approximately 0.09 Mb
--- Use option 'names no' to turn use of names off
--- GMO memory 0.99 Mb (peak 1.01 Mb)
--- Dictionary memory 0.00 Mb
--- Cplex 20.1.0.0 link memory 0.07 Mb (peak 0.28 Mb)
--- Starting Cplex

Version identifier: 20.1.0.0 | 2020-11-10 | 9bedb6d68
CPXPARAM_Threads                                 1
CPXPARAM_MIP_Display                             4
CPXPARAM_TimeLimit                               3600
CPXPARAM_MIP_Tolerances_AbsMIPGap                0
CPXPARAM_MIP_Tolerances_MIPGap                   0
Generic callback                                 0x50
Processing 1 MIP starts.
MIP start 'm1' defined solution with objective 85.0000.
1 of 1 MIP starts provided solutions.
MIP start 'm1' defined initial solution with objective 85.0000.
Tried aggregator 2 times.
MIP Presolve eliminated 723 rows and 582 columns.
MIP Presolve added 564 rows and 0 columns.
MIP Presolve modified 2 coefficients.
Aggregator did 194 substitutions.
Reduced MIP has 1397 rows, 1725 columns, and 3907 nonzeros.
Reduced MIP has 863 binaries, 0 generals, 0 SOSs, and 0 indicators.
Presolve time = 0.00 sec. (18.80 ticks)
Probing fixed 0 vars, tightened 1 bounds.
Probing time = 0.00 sec. (0.23 ticks)
Tried aggregator 1 time.
Detecting symmetries...
MIP Presolve modified 1 coefficients.
Reduced MIP has 1397 rows, 1725 columns, and 3907 nonzeros.
Reduced MIP has 863 binaries, 0 generals, 0 SOSs, and 0 indicators.
Presolve time = 0.00 sec. (7.82 ticks)
Probing fixed 0 vars, tightened 1 bounds.
Probing time = 0.00 sec. (0.23 ticks)
Clique table members: 6.
MIP emphasis: balance optimality and feasibility.
MIP search method: dynamic search.
Parallel mode: none, using 1 thread.
Tried aggregator 1 time.
LP Presolve eliminated 634 rows and 672 columns.
Aggregator did 229 substitutions.
Reduced LP has 516 rows, 824 columns, and 2104 nonzeros.
Presolve time = 0.00 sec. (1.10 ticks)

Iteration log . . .
Iteration:     1   Dual infeasibility =             2.000000
Iteration:     5   Dual objective     =            27.000000
Initializing dual steep norms . . .
Root relaxation solution time = 0.00 sec. (2.20 ticks)

        Nodes                                         Cuts/
   Node  Left     Objective  IInf  Best Integer    Best Bound    ItCnt     Gap

*     0+    0                           85.0000       25.0000            70.59%
Found incumbent of value 85.000000 after 0.01 sec. (31.84 ticks)
      0     0       52.0000    20       85.0000       52.0000       53   38.82%
      0     0       63.3750    21       85.0000      Cuts: 31       83   25.44%
      0     0       68.3036    39       85.0000      Cuts: 27      132   19.64%
      0     0       71.0354    44       85.0000      Cuts: 43      175   16.43%
      0     0       73.3000    40       85.0000      Cuts: 43      205   13.76%
      0     0       74.0143    46       85.0000      Cuts: 38      240   12.92%
Detecting symmetries...
      0     0       74.7851    48       85.0000      Cuts: 35      286   12.02%
      0     0       75.1696    51       85.0000      Cuts: 50      328   11.57%
      0     0       75.9895    53       85.0000      Cuts: 48      372   10.60%
      0     0       77.2581    56       85.0000      Cuts: 51      430    9.11%
      0     0       77.4652    48       85.0000      Cuts: 45      459    8.86%
      0     0       78.0372    48       85.0000      Cuts: 39      496    8.19%
      0     0       78.3800    48       85.0000      Cuts: 29      524    7.79%
      0     0       78.6509    59       85.0000      Cuts: 28      553    7.47%
      0     0       78.9680    63       85.0000      Cuts: 32      589    7.10%
      0     0       79.1061    47       85.0000      Cuts: 33      617    6.93%
      0     0       79.1940    43       85.0000      Cuts: 40      634    6.83%
      0     0       79.3980    65       85.0000      Cuts: 26      673    6.59%
      0     0       79.6379    50       85.0000      Cuts: 42      705    6.31%
      0     0       79.7489    46       85.0000      Cuts: 35      735    6.18%
      0     0       79.7898    64       85.0000      Cuts: 27      764    6.13%
      0     0       80.0269    50       85.0000      Cuts: 38      807    5.85%
      0     0       80.2539    56       85.0000      Cuts: 32      850    5.58%
      0     0       80.3564    62       85.0000      Cuts: 23      891    5.46%
      0     0       80.5509    55       85.0000      Cuts: 22      926    5.23%
      0     0       80.7109    53       85.0000      Cuts: 54      958    5.05%
      0     0       80.7253    47       85.0000      Cuts: 15      970    5.03%
      0     0       80.7367    59       85.0000      Cuts: 13      987    5.02%
Detecting symmetries...
      0     2       80.7367    59       85.0000       80.7375      987    5.01%
Elapsed time = 0.31 sec. (383.26 ticks, tree = 0.01 MB, solutions = 1)

Clique cuts applied:  1
Flow cuts applied:  66
Mixed integer rounding cuts applied:  43
Zero-half cuts applied:  2
Multi commodity flow cuts applied:  1
Gomory fractional cuts applied:  6

Root node processing (before b&c):
  Real time             =    0.31 sec. (383.26 ticks)
Sequential b&c:
  Real time             =    0.05 sec. (65.51 ticks)
                          ------------
Total (root+branch&cut) =    0.36 sec. (448.77 ticks)

--- MIP status (101): integer optimal solution.
--- Cplex Time: 0.36sec (det. 448.77 ticks)

--- Fixing integer variables and solving final LP...

Version identifier: 20.1.0.0 | 2020-11-10 | 9bedb6d68
CPXPARAM_Advance                                 2
CPXPARAM_Threads                                 1
CPXPARAM_MIP_Display                             4
CPXPARAM_TimeLimit                               3600
CPXPARAM_MIP_Tolerances_AbsMIPGap                0
CPXPARAM_MIP_Tolerances_MIPGap                   0
Tried aggregator 1 time.
LP Presolve eliminated 1750 rows and 2501 columns.
All rows and columns eliminated.
Presolve time = 0.02 sec. (0.92 ticks)

--- Fixed MIP status (1): optimal.
--- Cplex Time: 0.02sec (det. 1.50 ticks)


Proven optimal solution
MIP Solution:           85.000000    (1987 iterations, 29 nodes)
Final Solve:            85.000000    (0 iterations)

Best possible:          85.000000
Absolute gap:            0.000000
Relative gap:            0.000000

--- Reading solution for model master
*** Status: Normal completion
--- Job bchfcnet.gms Stop 02/08/22 11:51:47 elapsed 0:00:01.744
